NAME :  IRP
COMMENT : 
TYPE :  CVRP
DIMENSION : 	6
EDGE_WEIGHT_TYPE : 	EUC_2D
CAPACITY : 	284
NODE_COORD_SECTION
1	339	285
2	67	238
3	165	156
4	300	299
5	497	262
6	66	207
DEMAND_SECTION
1	0
2	82
3	90
4	48
5	114
6	228
DEPOT_SECTION
	1
	-1
EOF
